
Gurobi 9.5.2 (win64) logging started Mon Mar 27 20:27:12 2023

Set parameter LogFile to value "2023-03-27_20hr-25min-09sec/Nodes30_Arcs45_LocNodes22/Formulation-2Instance-1.log"
Set parameter TimeLimit to value 600
Set parameter IntFeasTol to value 1e-09
Set parameter DualReductions to value 0
Set parameter NonConvex to value 2
Gurobi Optimizer version 9.5.2 build v9.5.2rc0 (win64)
Thread count: 4 physical cores, 8 logical processors, using up to 8 threads
Optimize a model with 128 rows, 224 columns and 478 nonzeros
Model fingerprint: 0x08f1861c
Model has 75 quadratic objective terms
Model has 75 SOS constraints
Variable types: 202 continuous, 22 integer (22 binary)
Coefficient statistics:
  Matrix range     [6e-03, 2e+02]
  Objective range  [3e-02, 1e+03]
  QObjective range [1e-02, 8e+00]
  Bounds range     [1e+00, 1e+00]
  RHS range        [3e-02, 2e+03]
Presolve removed 4 rows and 4 columns
Presolve time: 0.00s
Presolved: 124 rows, 220 columns, 473 nonzeros
Presolved model has 75 SOS constraint(s)
Presolved model has 75 quadratic objective terms
Variable types: 198 continuous, 22 integer (22 binary)

Root relaxation: objective 6.664488e+05, 269 iterations, 0.00 seconds (0.00 work units)

    Nodes    |    Current Node    |     Objective Bounds      |     Work
 Expl Unexpl |  Obj  Depth IntInf | Incumbent    BestBd   Gap | It/Node Time

     0     0 666448.835    0    5          - 666448.835      -     -    0s
H    0     0                    662275.11434 666448.835  0.63%     -    0s
     0     0 666265.148    0    6 662275.114 666265.148  0.60%     -    0s
H    0     0                    665343.63746 666265.148  0.14%     -    0s
     0     0 666192.828    0    6 665343.637 666192.828  0.13%     -    0s

Cutting planes:
  Implied bound: 1
  MIR: 1
  Flow cover: 2

Explored 1 nodes (282 simplex iterations) in 0.14 seconds (0.01 work units)
Thread count was 8 (of 8 available processors)

Solution count 2: 665344 662275 

Optimal solution found (tolerance 1.00e-04)
Best objective 6.653436374630e+05, best bound 6.653436374630e+05, gap 0.0000%

User-callback calls 283, time in user-callback 0.00 sec
